1 - 0
2 - 0
3 - 0
4 - 0
5 - 0
6 - 0
7 - 0
8 - 0
9 - 0
10 - 0
11 - 0
12 - 0
13 - 0
14 - 0
15 - 0
16 - 0
17 - 0
18 - 0
19 - 0
20 - 0
21 - 0
22 - 0
23 - 993
24 - 15201
25 - 25724
26 - 14963
27 - 8933
28 - 6757
29 - 4971
30 - 3831
31 - 2968
32 - 2820
33 - 2030
34 - 1831
35 - 1514
36 - 1269
37 - 1119
38 - 991
39 - 864
40 - 733
41 - 562
42 - 523
43 - 451
44 - 379
45 - 253
46 - 195
47 - 124
48 - 73
49 - 16
50 - 0

0.1 - 47067
0.2 - 24108
0.3 - 12432
0.4 - 6533
0.5 - 3735
0.6 - 2306
0.7 - 1605
0.8 - 1055
0.9 - 718
1 - 529
